NAME : XML100_3223_09
DIMENSION : 101
NB_CLUSTERS : 3
CLUSTERING_ALG : KMedoids
CLUSTERING_PARAMS : k(2)
CLUSTERS
1 0
2 1 2 3 4 6 10 11 12 13 14 15 16 21 22 23 25 26 27 28 29 31 33 38 39 43 45 46 47 48 50 51 52 53 54 57 58 59 60 61 62 63 64 65 66 68 69 70 71 72 74 75 80 85 86 87 88 89 90 91 92 93 94 95 96 97 98 99
3 5 7 8 9 17 18 19 20 24 30 32 34 35 36 37 40 41 42 44 49 55 56 67 73 76 77 78 79 81 82 83 84 100
EOF